c description: Tseitin formula on , with even charge
c generator: CNFgen (0.9.0)
c copyright: (C) 2012-2020 Massimo Lauria <massimo.lauria@uniroma1.it>
c url: https://massimolauria.net/cnfgen
c
p cnf 20 125
1 2 3 -4 0
1 2 -3 4 0
1 -2 3 4 0
1 -2 -3 -4 0
-1 2 3 4 0
-1 2 -3 -4 0
-1 -2 3 -4 0
-1 -2 -3 4 0
1 5 -6 0
1 -5 6 0
-1 5 6 0
-1 -5 -6 0
7 8 9 -10 0
7 8 -9 10 0
7 -8 9 10 0
7 -8 -9 -10 0
-7 8 9 10 0
-7 8 -9 -10 0
-7 -8 9 -10 0
-7 -8 -9 10 0
7 11 12 13 -14 0
7 11 12 -13 14 0
7 11 -12 13 14 0
7 11 -12 -13 -14 0
7 -11 12 13 14 0
7 -11 12 -13 -14 0
7 -11 -12 13 -14 0
7 -11 -12 -13 14 0
-7 11 12 13 14 0
-7 11 12 -13 -14 0
-7 11 -12 13 -14 0
-7 11 -12 -13 14 0
-7 -11 12 13 -14 0
-7 -11 12 -13 14 0
-7 -11 -12 13 14 0
-7 -11 -12 -13 -14 0
5 8 11 15 -16 0
5 8 11 -15 16 0
5 8 -11 15 16 0
5 8 -11 -15 -16 0
5 -8 11 15 16 0
5 -8 11 -15 -16 0
5 -8 -11 15 -16 0
5 -8 -11 -15 16 0
-5 8 11 15 16 0
-5 8 11 -15 -16 0
-5 8 -11 15 -16 0
-5 8 -11 -15 16 0
-5 -8 11 15 -16 0
-5 -8 11 -15 16 0
-5 -8 -11 15 16 0
-5 -8 -11 -15 -16 0
2 12 -17 0
2 -12 17 0
-2 12 17 0
-2 -12 -17 0
9 13 -18 0
9 -13 18 0
-9 13 18 0
-9 -13 -18 0
-19 0
3 10 14 15 19 -20 0
3 10 14 15 -19 20 0
3 10 14 -15 19 20 0
3 10 14 -15 -19 -20 0
3 10 -14 15 19 20 0
3 10 -14 15 -19 -20 0
3 10 -14 -15 19 -20 0
3 10 -14 -15 -19 20 0
3 -10 14 15 19 20 0
3 -10 14 15 -19 -20 0
3 -10 14 -15 19 -20 0
3 -10 14 -15 -19 20 0
3 -10 -14 15 19 -20 0
3 -10 -14 15 -19 20 0
3 -10 -14 -15 19 20 0
3 -10 -14 -15 -19 -20 0
-3 10 14 15 19 20 0
-3 10 14 15 -19 -20 0
-3 10 14 -15 19 -20 0
-3 10 14 -15 -19 20 0
-3 10 -14 15 19 -20 0
-3 10 -14 15 -19 20 0
-3 10 -14 -15 19 20 0
-3 10 -14 -15 -19 -20 0
-3 -10 14 15 19 -20 0
-3 -10 14 15 -19 20 0
-3 -10 14 -15 19 20 0
-3 -10 14 -15 -19 -20 0
-3 -10 -14 15 19 20 0
-3 -10 -14 15 -19 -20 0
-3 -10 -14 -15 19 -20 0
-3 -10 -14 -15 -19 20 0
4 6 16 17 18 -20 0
4 6 16 17 -18 20 0
4 6 16 -17 18 20 0
4 6 16 -17 -18 -20 0
4 6 -16 17 18 20 0
4 6 -16 17 -18 -20 0
4 6 -16 -17 18 -20 0
4 6 -16 -17 -18 20 0
4 -6 16 17 18 20 0
4 -6 16 17 -18 -20 0
4 -6 16 -17 18 -20 0
4 -6 16 -17 -18 20 0
4 -6 -16 17 18 -20 0
4 -6 -16 17 -18 20 0
4 -6 -16 -17 18 20 0
4 -6 -16 -17 -18 -20 0
-4 6 16 17 18 20 0
-4 6 16 17 -18 -20 0
-4 6 16 -17 18 -20 0
-4 6 16 -17 -18 20 0
-4 6 -16 17 18 -20 0
-4 6 -16 17 -18 20 0
-4 6 -16 -17 18 20 0
-4 6 -16 -17 -18 -20 0
-4 -6 16 17 18 -20 0
-4 -6 16 17 -18 20 0
-4 -6 16 -17 18 20 0
-4 -6 16 -17 -18 -20 0
-4 -6 -16 17 18 20 0
-4 -6 -16 17 -18 -20 0
-4 -6 -16 -17 18 -20 0
-4 -6 -16 -17 -18 20 0